Geographic Exponential Decay
20 38 105 162 196 83 165 60 103 234 42 178 282 277 20 91 50 8 96 176 109
p edge 320 1176
e 0 160 1.0
e 0 306 1.0
e 1 312 1.0
e 1 255 2.0
e 2 293 2.0
e 2 189 5.0
e 3 192 9.0
e 3 285 9.0
e 3 297 3.0
e 3 186 4.0
e 3 151 6.0
e 4 74 2.0
e 4 230 1.0
e 4 213 2.0
e 5 37 2.0
e 5 38 50.0
e 6 281 1.0
e 6 220 1.0
e 7 12 1.0
e 7 15 3.0
e 7 279 3.0
e 8 88 53.0
e 8 52 77.0
e 8 244 75.0
e 8 240 16.0
e 8 70 17.0
e 8 58 99.0
e 8 89 65.0
e 8 171 68.0
e 8 96 94.0
e 8 256 57.0
e 8 236 46.0
e 8 111 65.0
e 8 212 45.0
e 8 315 87.0
e 8 138 8.0
e 8 178 37.0
e 8 184 12.0
e 8 90 50.0
e 8 231 65.0
e 8 305 81.0
e 8 300 21.0
e 8 226 60.0
e 8 55 8.0
e 8 32 43.0
e 8 267 11.0
e 8 14 76.0
e 8 193 8.0
e 8 222 2.0
e 8 97 24.0
e 8 56 40.0
e 8 151 39.0
e 8 239 49.0
e 8 158 20.0
e 8 144 61.0
e 8 44 64.0
e 8 261 31.0
e 8 243 4.0
e 9 114 9.0
e 9 212 3.0
e 9 246 6.0
e 9 188 12.0
e 9 2 3.0
e 10 66 4.0
e 10 266 2.0
e 11 238 10.0
e 11 283 4.0
e 11 16 1.0
e 12 190 1.0
e 13 198 2.0
e 13 252 1.0
e 14 117 1.0
e 15 313 1.0
e 16 44 18.0
e 16 169 6.0
e 17 170 6.0
e 17 243 12.0
e 18 5 4.0
e 18 190 7.0
e 18 106 1.0
e 18 100 7.0
e 18 72 3.0
e 19 36 25.0
e 19 123 1.0
e 19 219 14.0
e 19 111 5.0
e 19 259 18.0
e 19 35 5.0
e 19 252 24.0
e 19 4 13.0
e 19 132 17.0
e 19 142 8.0
e 20 51 100.0
e 20 31 92.0
e 20 75 82.0
e 20 290 35.0
e 20 209 14.0
e 20 148 64.0
e 20 167 10.0
e 20 1 73.0
e 20 130 92.0
e 20 262 15.0
e 20 275 25.0
e 20 8 10.0
e 20 74 34.0
e 20 253 44.0
e 20 141 21.0
e 20 103 66.0
e 20 189 40.0
e 20 191 55.0
e 20 179 74.0
e 20 312 67.0
e 20 40 45.0
e 20 180 59.0
e 20 77 19.0
e 20 263 31.0
e 20 19 83.0
e 20 21 82.0
e 20 76 93.0
e 20 170 17.0
e 20 123 100.0
e 20 90 49.0
e 20 156 8.0
e 20 22 62.0
e 20 119 89.0
e 20 194 47.0
e 20 202 60.0
e 20 240 93.0
e 20 32 39.0
e 21 29 1.0
e 22 136 18.0
e 22 269 15.0
e 22 211 21.0
e 22 149 21.0
e 22 243 16.0
e 22 169 23.0
e 22 168 10.0
e 22 306 10.0
e 22 228 2.0
e 23 252 1.0
e 23 260 3.0
e 24 180 1.0
e 24 289 9.0
e 25 308 3.0
e 25 117 2.0
e 25 210 1.0
e 26 50 50.0
e 26 163 5.0
e 26 203 18.0
e 26 316 15.0
e 26 107 18.0
e 26 9 15.0
e 26 174 22.0
e 26 261 14.0
e 26 166 5.0
e 26 42 10.0
e 27 161 2.0
e 27 309 2.0
e 28 138 3.0
e 28 127 2.0
e 28 254 1.0
e 29 206 2.0
e 30 234 61.0
e 30 193 11.0
e 30 70 4.0
e 30 8 63.0
e 30 206 8.0
e 31 16 5.0
e 31 297 3.0
e 33 18 8.0
e 33 214 2.0
e 34 33 4.0
e 34 15 8.0
e 34 249 10.0
e 34 180 4.0
e 34 88 4.0
e 35 275 1.0
e 36 2 2.0
e 37 235 2.0
e 38 35 95.0
e 38 201 6.0
e 38 147 73.0
e 38 313 13.0
e 38 184 94.0
e 38 199 47.0
e 38 272 69.0
e 38 198 5.0
e 38 69 59.0
e 38 254 24.0
e 38 82 83.0
e 38 90 64.0
e 38 150 20.0
e 38 267 4.0
e 38 160 16.0
e 38 30 96.0
e 38 143 33.0
e 38 197 41.0
e 38 237 17.0
e 38 185 6.0
e 38 12 40.0
e 38 120 81.0
e 38 52 8.0
e 38 48 4.0
e 38 112 97.0
e 38 226 49.0
e 38 20 50.0
e 38 60 50.0
e 38 265 62.0
e 38 145 34.0
e 38 99 45.0
e 38 232 28.0
e 38 31 32.0
e 38 204 87.0
e 38 188 70.0
e 38 3 84.0
e 39 4 5.0
e 39 239 10.0
e 39 280 1.0
e 40 81 3.0
e 41 22 9.0
e 41 292 2.0
e 42 270 75.0
e 42 236 100.0
e 42 244 75.0
e 42 216 68.0
e 42 207 97.0
e 42 267 18.0
e 42 198 37.0
e 42 134 61.0
e 42 223 52.0
e 42 239 54.0
e 42 128 23.0
e 42 120 40.0
e 42 130 68.0
e 42 194 55.0
e 42 49 56.0
e 42 30 97.0
e 42 126 20.0
e 42 12 46.0
e 42 17 30.0
e 42 27 87.0
e 42 250 78.0
e 42 173 69.0
e 42 69 1.0
e 42 210 33.0
e 42 206 25.0
e 42 271 92.0
e 42 309 25.0
e 42 70 41.0
e 42 205 32.0
e 42 291 32.0
e 42 51 49.0
e 42 75 18.0
e 42 83 76.0
e 42 153 72.0
e 42 13 27.0
e 42 248 43.0
e 43 276 5.0
e 43 28 3.0
e 43 44 6.0
e 44 53 2.0
e 44 224 13.0
e 44 9 14.0
e 44 208 10.0
e 44 138 18.0
e 44 117 16.0
e 44 19 2.0
e 45 82 4.0
e 45 160 1.0
e 46 181 1.0
e 46 264 1.0
e 46 191 1.0
e 47 264 1.0
e 47 295 35.0
e 48 74 4.0
e 48 81 2.0
e 49 96 81.0
e 50 217 54.0
e 50 207 43.0
e 50 221 83.0
e 50 138 89.0
e 50 235 79.0
e 50 76 26.0
e 50 233 27.0
e 50 94 2.0
e 50 222 58.0
e 50 246 27.0
e 50 258 50.0
e 50 205 61.0
e 50 269 89.0
e 50 53 71.0
e 50 136 90.0
e 50 272 90.0
e 50 115 29.0
e 50 212 84.0
e 50 64 97.0
e 50 152 73.0
e 50 302 30.0
e 50 109 48.0
e 50 42 92.0
e 50 209 47.0
e 50 218 95.0
e 50 135 33.0
e 50 223 48.0
e 50 117 51.0
e 50 172 58.0
e 50 224 6.0
e 50 203 35.0
e 50 29 93.0
e 50 30 51.0
e 50 173 62.0
e 50 308 93.0
e 50 80 61.0
e 53 74 1.0
e 54 231 1.0
e 54 240 3.0
e 55 309 2.0
e 56 308 1.0
e 57 201 4.0
e 57 1 1.0
e 58 309 1.0
e 58 87 3.0
e 59 298 19.0
e 59 237 24.0
e 59 313 1.0
e 59 317 9.0
e 59 225 5.0
e 60 215 52.0
e 60 216 13.0
e 60 283 49.0
e 60 51 29.0
e 60 41 40.0
e 60 285 40.0
e 60 222 9.0
e 60 23 25.0
e 60 302 72.0
e 60 101 33.0
e 60 289 74.0
e 60 11 93.0
e 60 132 89.0
e 60 103 98.0
e 60 26 10.0
e 60 252 16.0
e 60 71 51.0
e 60 155 88.0
e 60 275 15.0
e 60 253 3.0
e 60 32 88.0
e 60 149 48.0
e 60 146 81.0
e 60 267 10.0
e 60 117 62.0
e 60 69 40.0
e 60 52 10.0
e 60 239 70.0
e 60 42 91.0
e 60 266 39.0
e 60 225 34.0
e 60 181 77.0
e 60 112 53.0
e 60 208 44.0
e 60 152 56.0
e 60 167 42.0
e 61 230 8.0
e 61 203 7.0
e 61 164 7.0
e 61 72 1.0
e 61 24 6.0
e 62 19 18.0
e 62 262 23.0
e 62 258 1.0
e 62 126 16.0
e 62 203 19.0
e 62 231 1.0
e 62 248 8.0
e 62 264 16.0
e 62 257 16.0
e 62 109 36.0
e 63 250 3.0
e 63 88 1.0
e 64 13 1.0
e 64 156 6.0
e 65 240 4.0
e 65 3 18.0
e 65 274 9.0
e 65 145 18.0
e 65 225 11.0
e 65 276 17.0
e 65 109 86.0
e 65 95 14.0
e 65 196 8.0
e 65 310 1.0
e 66 9 1.0
e 66 57 4.0
e 67 83 40.0
e 67 84 4.0
e 67 74 4.0
e 68 43 5.0
e 68 70 4.0
e 71 244 1.0
e 72 231 3.0
e 73 260 1.0
e 73 42 51.0
e 73 106 9.0
e 73 154 11.0
e 73 85 1.0
e 75 43 1.0
e 77 160 6.0
e 77 169 5.0
e 78 46 1.0
e 78 12 2.0
e 78 224 4.0
e 79 272 6.0
e 79 0 1.0
e 79 188 12.0
e 79 220 8.0
e 79 48 10.0
e 80 199 8.0
e 80 153 8.0
e 80 158 3.0
e 80 38 12.0
e 82 120 2.0
e 83 294 77.0
e 83 1 25.0
e 83 116 54.0
e 83 252 64.0
e 83 295 42.0
e 83 59 8.0
e 83 169 69.0
e 83 110 41.0
e 83 154 1.0
e 83 162 1.0
e 83 207 72.0
e 83 99 42.0
e 83 109 90.0
e 83 290 42.0
e 83 9 90.0
e 83 123 42.0
e 83 233 35.0
e 83 283 46.0
e 83 132 75.0
e 83 45 4.0
e 83 274 74.0
e 83 284 36.0
e 83 173 12.0
e 83 17 98.0
e 83 40 47.0
e 83 200 84.0
e 83 285 47.0
e 83 248 13.0
e 83 41 97.0
e 83 296 40.0
e 83 250 91.0
e 83 81 41.0
e 83 10 89.0
e 83 79 78.0
e 83 46 7.0
e 84 286 3.0
e 85 147 4.0
e 85 6 2.0
e 86 128 5.0
e 86 134 7.0
e 86 229 1.0
e 87 54 1.0
e 87 241 6.0
e 87 39 2.0
e 87 35 3.0
e 89 38 17.0
e 89 68 2.0
e 90 208 12.0
e 90 68 3.0
e 91 3 23.0
e 91 11 56.0
e 91 4 44.0
e 91 77 83.0
e 91 55 26.0
e 91 109 12.0
e 91 79 30.0
e 91 306 16.0
e 91 8 55.0
e 91 103 32.0
e 91 265 91.0
e 91 58 57.0
e 91 271 53.0
e 91 145 57.0
e 91 113 71.0
e 91 87 28.0
e 91 198 65.0
e 91 259 70.0
e 91 260 26.0
e 91 291 74.0
e 91 282 13.0
e 91 1 91.0
e 91 140 93.0
e 91 50 83.0
e 91 289 43.0
e 91 94 96.0
e 91 18 79.0
e 91 169 21.0
e 91 141 1.0
e 91 190 85.0
e 91 201 34.0
e 91 95 21.0
e 91 47 40.0
e 91 154 23.0
e 91 48 61.0
e 91 248 11.0
e 91 217 10.0
e 92 41 1.0
e 92 97 1.0
e 93 43 4.0
e 93 245 1.0
e 96 134 49.0
e 96 55 29.0
e 96 203 58.0
e 96 277 83.0
e 96 176 94.0
e 96 283 62.0
e 96 311 46.0
e 96 286 74.0
e 96 253 76.0
e 96 162 71.0
e 96 83 49.0
e 96 35 25.0
e 96 6 46.0
e 96 188 27.0
e 96 278 36.0
e 96 46 15.0
e 96 290 6.0
e 96 260 77.0
e 96 204 66.0
e 96 141 66.0
e 96 132 88.0
e 96 266 76.0
e 96 211 84.0
e 96 80 66.0
e 96 317 95.0
e 96 138 87.0
e 96 126 33.0
e 96 261 18.0
e 96 36 18.0
e 96 299 12.0
e 96 316 55.0
e 96 166 72.0
e 96 85 33.0
e 96 114 45.0
e 96 310 2.0
e 98 75 20.0
e 98 120 8.0
e 98 61 11.0
e 98 4 12.0
e 98 96 40.0
e 98 101 11.0
e 98 221 14.0
e 98 286 15.0
e 98 109 93.0
e 98 99 24.0
e 100 220 1.0
e 102 252 1.0
e 102 69 2.0
e 103 114 37.0
e 103 79 99.0
e 103 168 17.0
e 103 39 2.0
e 103 1 8.0
e 103 118 22.0
e 103 96 20.0
e 103 54 51.0
e 103 292 20.0
e 103 226 57.0
e 103 293 81.0
e 103 2 91.0
e 103 33 11.0
e 103 159 61.0
e 103 133 64.0
e 103 108 98.0
e 103 166 12.0
e 103 318 70.0
e 103 3 77.0
e 103 233 22.0
e 103 17 23.0
e 103 235 97.0
e 103 177 65.0
e 103 245 96.0
e 103 263 50.0
e 103 164 100.0
e 103 198 56.0
e 103 254 47.0
e 103 261 40.0
e 103 152 3.0
e 103 247 50.0
e 103 32 9.0
e 103 78 87.0
e 103 5 6.0
e 104 85 1.0
e 104 11 5.0
e 105 60 68.0
e 105 114 72.0
e 105 234 84.0
e 105 17 19.0
e 105 281 13.0
e 105 174 50.0
e 105 240 1.0
e 105 209 69.0
e 105 115 10.0
e 105 91 43.0
e 105 299 41.0
e 105 101 37.0
e 105 86 100.0
e 105 4 71.0
e 105 261 13.0
e 105 22 25.0
e 105 293 62.0
e 105 175 44.0
e 105 125 53.0
e 105 107 26.0
e 105 178 27.0
e 105 252 37.0
e 105 195 8.0
e 105 83 33.0
e 105 317 94.0
e 105 108 87.0
e 105 238 46.0
e 105 247 46.0
e 105 138 42.0
e 105 177 27.0
e 105 33 37.0
e 105 282 68.0
e 105 308 74.0
e 105 144 62.0
e 105 117 71.0
e 105 279 93.0
e 105 116 55.0
e 109 10 6.0
e 109 26 45.0
e 109 108 52.0
e 109 250 94.0
e 109 303 37.0
e 109 187 98.0
e 109 149 14.0
e 109 112 81.0
e 109 239 2.0
e 109 274 71.0
e 109 155 19.0
e 109 277 44.0
e 109 43 61.0
e 109 192 46.0
e 109 172 82.0
e 109 15 48.0
e 109 276 43.0
e 109 66 83.0
e 109 1 89.0
e 109 2 91.0
e 109 171 31.0
e 109 270 71.0
e 109 111 12.0
e 109 132 3.0
e 109 145 35.0
e 109 242 33.0
e 109 137 97.0
e 109 269 24.0
e 109 31 70.0
e 109 24 86.0
e 109 162 11.0
e 110 46 1.0
e 113 47 10.0
e 113 281 24.0
e 113 53 14.0
e 113 297 24.0
e 113 282 9.0
e 113 189 18.0
e 113 81 34.0
e 113 118 2.0
e 113 243 17.0
e 113 19 8.0
e 113 51 13.0
e 113 79 23.0
e 113 99 46.0
e 113 121 26.0
e 113 214 2.0
e 113 27 16.0
e 113 195 18.0
e 113 8 61.0
e 115 124 5.0
e 118 280 1.0
e 119 80 5.0
e 121 8 18.0
e 122 277 73.0
e 122 125 1.0
e 124 249 10.0
e 124 107 4.0
e 124 0 11.0
e 124 57 11.0
e 127 170 6.0
e 128 185 5.0
e 129 75 8.0
e 129 120 12.0
e 129 65 13.0
e 129 44 12.0
e 129 249 5.0
e 131 31 5.0
e 131 125 1.0
e 133 269 1.0
e 134 7 10.0
e 134 48 9.0
e 135 43 2.0
e 135 267 7.0
e 135 261 5.0
e 135 101 4.0
e 137 143 5.0
e 137 282 42.0
e 139 202 2.0
e 139 104 1.0
e 140 128 1.0
e 142 81 1.0
e 146 226 1.0
e 147 46 2.0
e 147 202 3.0
e 147 86 2.0
e 148 260 5.0
e 150 201 6.0
e 150 167 8.0
e 150 13 12.0
e 150 82 1.0
e 155 34 1.0
e 157 289 2.0
e 157 228 1.0
e 157 43 6.0
e 159 214 2.0
e 159 264 2.0
e 159 234 57.0
e 159 55 10.0
e 161 282 67.0
e 161 272 2.0
e 162 65 20.0
e 162 44 93.0
e 162 308 82.0
e 162 269 20.0
e 162 255 89.0
e 162 283 59.0
e 162 178 48.0
e 162 304 84.0
e 162 177 78.0
e 162 4 49.0
e 162 115 9.0
e 162 305 96.0
e 162 169 11.0
e 162 237 87.0
e 162 296 20.0
e 162 270 23.0
e 162 206 76.0
e 162 307 45.0
e 162 291 33.0
e 162 213 4.0
e 162 152 25.0
e 162 66 74.0
e 162 61 42.0
e 162 147 100.0
e 162 49 57.0
e 162 292 5.0
e 162 32 51.0
e 162 19 93.0
e 162 229 85.0
e 162 245 66.0
e 162 142 97.0
e 162 200 21.0
e 162 279 39.0
e 162 313 29.0
e 163 141 3.0
e 165 300 47.0
e 165 88 19.0
e 165 32 58.0
e 165 312 39.0
e 165 286 41.0
e 165 167 35.0
e 165 136 58.0
e 165 110 94.0
e 165 239 95.0
e 165 125 38.0
e 165 70 3.0
e 165 5 23.0
e 165 8 90.0
e 165 104 79.0
e 165 105 83.0
e 165 57 48.0
e 165 310 65.0
e 165 126 53.0
e 165 58 49.0
e 165 95 98.0
e 165 260 7.0
e 165 9 74.0
e 165 304 27.0
e 165 46 49.0
e 165 94 55.0
e 165 161 22.0
e 165 13 86.0
e 165 96 38.0
e 165 201 93.0
e 165 106 40.0
e 165 99 35.0
e 165 314 48.0
e 165 153 68.0
e 165 190 92.0
e 165 7 78.0
e 165 60 89.0
e 165 147 26.0
e 168 251 1.0
e 174 136 1.0
e 175 264 24.0
e 175 212 17.0
e 175 313 4.0
e 175 99 11.0
e 175 1 10.0
e 175 283 9.0
e 175 2 22.0
e 175 25 3.0
e 175 318 9.0
e 176 132 62.0
e 176 242 80.0
e 176 116 48.0
e 176 59 62.0
e 176 97 91.0
e 176 105 31.0
e 176 255 56.0
e 176 99 68.0
e 176 2 3.0
e 176 236 50.0
e 176 229 95.0
e 176 249 81.0
e 176 221 53.0
e 176 94 45.0
e 176 44 14.0
e 176 269 94.0
e 176 78 97.0
e 176 163 60.0
e 176 215 60.0
e 176 45 22.0
e 176 303 42.0
e 176 133 55.0
e 176 1 63.0
e 176 58 42.0
e 176 177 42.0
e 176 91 8.0
e 176 117 77.0
e 176 6 81.0
e 176 314 9.0
e 176 15 27.0
e 176 279 18.0
e 176 65 82.0
e 176 27 13.0
e 176 171 66.0
e 176 109 28.0
e 176 121 24.0
e 177 260 8.0
e 178 73 56.0
e 178 163 7.0
e 178 203 62.0
e 178 317 41.0
e 178 62 68.0
e 178 256 1.0
e 178 6 38.0
e 178 179 17.0
e 178 79 61.0
e 178 122 34.0
e 178 106 39.0
e 178 64 26.0
e 178 220 24.0
e 178 31 78.0
e 178 216 38.0
e 178 277 35.0
e 178 198 84.0
e 178 196 47.0
e 178 250 38.0
e 178 100 35.0
e 178 7 55.0
e 178 18 49.0
e 178 301 34.0
e 178 63 98.0
e 178 19 71.0
e 178 272 9.0
e 178 119 29.0
e 178 204 79.0
e 178 155 55.0
e 178 244 31.0
e 178 110 60.0
e 178 83 60.0
e 178 50 97.0
e 178 45 77.0
e 181 189 2.0
e 182 127 1.0
e 182 71 2.0
e 183 82 5.0
e 183 98 19.0
e 184 106 1.0
e 184 224 1.0
e 184 93 1.0
e 186 142 2.0
e 187 153 2.0
e 193 19 15.0
e 194 108 8.0
e 194 134 6.0
e 194 98 11.0
e 196 258 20.0
e 196 274 9.0
e 196 177 9.0
e 196 299 23.0
e 196 201 32.0
e 196 103 31.0
e 196 159 93.0
e 196 93 23.0
e 196 16 52.0
e 196 225 43.0
e 196 140 27.0
e 196 181 73.0
e 196 108 36.0
e 196 147 22.0
e 196 96 4.0
e 196 82 49.0
e 196 259 14.0
e 196 242 68.0
e 196 44 72.0
e 196 194 61.0
e 196 2 32.0
e 196 42 46.0
e 196 298 40.0
e 196 66 51.0
e 196 94 3.0
e 196 205 5.0
e 196 281 86.0
e 196 12 88.0
e 196 165 89.0
e 196 226 60.0
e 196 22 77.0
e 196 7 83.0
e 196 46 89.0
e 196 4 81.0
e 196 286 33.0
e 197 23 2.0
e 199 109 72.0
e 207 162 17.0
e 207 266 10.0
e 208 203 1.0
e 208 161 5.0
e 210 132 9.0
e 215 49 4.0
e 217 226 6.0
e 217 208 16.0
e 217 309 22.0
e 217 29 19.0
e 217 261 17.0
e 217 290 33.0
e 217 291 25.0
e 217 170 14.0
e 218 279 1.0
e 218 311 12.0
e 218 112 10.0
e 218 239 23.0
e 219 220 1.0
e 221 104 28.0
e 221 31 20.0
e 221 258 13.0
e 221 152 35.0
e 221 150 14.0
e 221 251 4.0
e 221 238 45.0
e 221 46 6.0
e 221 267 19.0
e 221 52 17.0
e 221 301 34.0
e 221 275 47.0
e 221 312 41.0
e 221 299 26.0
e 221 211 4.0
e 221 113 16.0
e 223 312 2.0
e 227 125 1.0
e 227 245 1.0
e 228 76 5.0
e 230 233 1.0
e 232 152 2.0
e 234 282 88.0
e 234 153 17.0
e 234 177 27.0
e 234 193 67.0
e 234 318 64.0
e 234 60 65.0
e 234 116 41.0
e 234 96 76.0
e 234 285 65.0
e 234 249 81.0
e 234 148 22.0
e 234 204 17.0
e 234 132 40.0
e 234 103 36.0
e 234 41 16.0
e 234 18 34.0
e 234 143 29.0
e 234 197 69.0
e 234 58 17.0
e 234 180 55.0
e 234 92 46.0
e 234 300 56.0
e 234 49 54.0
e 234 190 37.0
e 234 174 51.0
e 234 316 39.0
e 234 278 68.0
e 234 195 42.0
e 234 238 95.0
e 234 287 6.0
e 234 164 28.0
e 234 296 67.0
e 234 109 47.0
e 234 169 57.0
e 237 223 19.0
e 237 35 2.0
e 237 240 1.0
e 237 285 20.0
e 237 195 1.0
e 237 14 18.0
e 237 66 22.0
e 238 83 24.0
e 239 67 10.0
e 239 260 12.0
e 239 155 4.0
e 241 224 1.0
e 243 94 3.0
e 250 85 20.0
e 250 50 91.0
e 250 182 24.0
e 250 6 18.0
e 250 301 10.0
e 251 90 6.0
e 256 137 1.0
e 257 69 2.0
e 262 119 2.0
e 263 26 7.0
e 268 176 63.0
e 268 63 5.0
e 268 49 3.0
e 271 47 11.0
e 271 12 1.0
e 271 292 6.0
e 273 145 2.0
e 273 98 13.0
e 277 211 22.0
e 277 48 32.0
e 277 302 9.0
e 277 194 17.0
e 277 263 40.0
e 277 167 59.0
e 277 116 20.0
e 277 55 50.0
e 277 303 57.0
e 277 282 8.0
e 277 238 36.0
e 277 149 83.0
e 277 248 56.0
e 277 57 40.0
e 277 135 67.0
e 277 25 14.0
e 277 40 92.0
e 277 107 32.0
e 277 214 24.0
e 277 169 67.0
e 277 243 68.0
e 277 190 23.0
e 277 112 1.0
e 277 276 7.0
e 277 143 100.0
e 277 140 31.0
e 277 129 53.0
e 277 215 50.0
e 277 66 7.0
e 277 132 92.0
e 277 219 51.0
e 277 76 91.0
e 277 110 30.0
e 282 233 23.0
e 282 204 8.0
e 282 76 41.0
e 282 180 2.0
e 282 123 54.0
e 282 243 49.0
e 282 73 93.0
e 282 247 20.0
e 282 114 14.0
e 282 92 41.0
e 282 271 48.0
e 282 24 23.0
e 282 30 47.0
e 282 164 75.0
e 282 77 37.0
e 282 235 49.0
e 282 182 84.0
e 282 281 67.0
e 282 297 39.0
e 282 241 76.0
e 282 289 44.0
e 282 207 48.0
e 282 26 99.0
e 282 256 47.0
e 282 236 56.0
e 282 117 91.0
e 282 221 69.0
e 282 83 25.0
e 282 253 89.0
e 282 232 58.0
e 284 273 1.0
e 284 316 9.0
e 284 3 3.0
e 284 122 1.0
e 287 112 2.0
e 287 288 7.0
e 287 17 7.0
e 287 189 2.0
e 288 173 2.0
e 290 34 7.0
e 290 91 75.0
e 290 292 1.0
e 290 240 4.0
e 290 135 36.0
e 290 269 41.0
e 290 170 9.0
e 290 256 6.0
e 290 2 6.0
e 290 117 32.0
e 290 142 25.0
e 290 291 35.0
e 290 85 34.0
e 290 23 24.0
e 290 97 17.0
e 294 57 4.0
e 294 99 3.0
e 295 275 39.0
e 295 75 39.0
e 295 314 15.0
e 295 219 4.0
e 295 152 31.0
e 295 101 6.0
e 295 171 40.0
e 295 163 28.0
e 295 136 35.0
e 295 137 4.0
e 295 74 14.0
e 295 10 27.0
e 295 225 12.0
e 295 63 32.0
e 295 170 22.0
e 295 304 48.0
e 295 38 20.0
e 296 51 23.0
e 296 256 7.0
e 296 42 84.0
e 296 93 20.0
e 296 292 4.0
e 296 43 14.0
e 296 25 2.0
e 298 130 7.0
e 298 94 14.0
e 298 286 1.0
e 298 25 5.0
e 298 293 24.0
e 298 134 3.0
e 298 146 17.0
e 298 252 8.0
e 304 51 9.0
e 304 28 3.0
e 305 124 1.0
e 307 14 2.0
e 315 206 1.0
e 319 313 3.0
e 319 289 2.0
e 319 107 12.0
e 319 232 8.0
e 319 29 6.0
